certificates/rado_a5_c153_N30.cnf
c Rad2 upper bound instance: x1 + 5*x2 - x3 = 153, interval [1,30]
p cnf 30 174
1 4 30 0
-1 -4 -30 0
2 5 30 0
-2 -5 -30 0
3 6 30 0
-3 -6 -30 0
4 7 30 0
-4 -7 -30 0
5 8 30 0
-5 -8 -30 0
1 9 29 0
-1 -9 -29 0
6 9 30 0
-6 -9 -30 0
2 10 29 0
-2 -10 -29 0
7 10 30 0
-7 -10 -30 0
3 11 29 0
-3 -11 -29 0
8 11 30 0
-8 -11 -30 0
4 12 29 0
-4 -12 -29 0
9 12 30 0
-9 -12 -30 0
5 13 29 0
-5 -13 -29 0
10 13 30 0
-10 -13 -30 0
1 14 28 0
-1 -14 -28 0
6 14 29 0
-6 -14 -29 0
11 14 30 0
-11 -14 -30 0
2 15 28 0
-2 -15 -28 0
7 15 29 0
-7 -15 -29 0
12 15 30 0
-12 -15 -30 0
3 16 28 0
-3 -16 -28 0
8 16 29 0
-8 -16 -29 0
13 16 30 0
-13 -16 -30 0
4 17 28 0
-4 -17 -28 0
9 17 29 0
-9 -17 -29 0
14 17 30 0
-14 -17 -30 0
5 18 28 0
-5 -18 -28 0
10 18 29 0
-10 -18 -29 0
15 18 30 0
-15 -18 -30 0
1 19 27 0
-1 -19 -27 0
6 19 28 0
-6 -19 -28 0
11 19 29 0
-11 -19 -29 0
16 19 30 0
-16 -19 -30 0
2 20 27 0
-2 -20 -27 0
7 20 28 0
-7 -20 -28 0
12 20 29 0
-12 -20 -29 0
17 20 30 0
-17 -20 -30 0
3 21 27 0
-3 -21 -27 0
8 21 28 0
-8 -21 -28 0
13 21 29 0
-13 -21 -29 0
18 21 30 0
-18 -21 -30 0
4 22 27 0
-4 -22 -27 0
9 22 28 0
-9 -22 -28 0
14 22 29 0
-14 -22 -29 0
19 22 30 0
-19 -22 -30 0
5 23 27 0
-5 -23 -27 0
10 23 28 0
-10 -23 -28 0
15 23 29 0
-15 -23 -29 0
20 23 30 0
-20 -23 -30 0
1 24 26 0
-1 -24 -26 0
6 24 27 0
-6 -24 -27 0
11 24 28 0
-11 -24 -28 0
16 24 29 0
-16 -24 -29 0
21 24 30 0
-21 -24 -30 0
2 25 26 0
-2 -25 -26 0
7 25 27 0
-7 -25 -27 0
12 25 28 0
-12 -25 -28 0
17 25 29 0
-17 -25 -29 0
22 25 30 0
-22 -25 -30 0
3 26 0
-3 -26 0
8 26 27 0
-8 -26 -27 0
13 26 28 0
-13 -26 -28 0
18 26 29 0
-18 -26 -29 0
23 26 30 0
-23 -26 -30 0
4 26 27 0
-4 -26 -27 0
9 27 0
-9 -27 0
14 27 28 0
-14 -27 -28 0
19 27 29 0
-19 -27 -29 0
24 27 30 0
-24 -27 -30 0
5 26 28 0
-5 -26 -28 0
10 27 28 0
-10 -27 -28 0
15 28 0
-15 -28 0
20 28 29 0
-20 -28 -29 0
25 28 30 0
-25 -28 -30 0
1 25 29 0
-1 -25 -29 0
6 26 29 0
-6 -26 -29 0
11 27 29 0
-11 -27 -29 0
16 28 29 0
-16 -28 -29 0
21 29 0
-21 -29 0
26 29 30 0
-26 -29 -30 0
2 25 30 0
-2 -25 -30 0
7 26 30 0
-7 -26 -30 0
12 27 30 0
-12 -27 -30 0
17 28 30 0
-17 -28 -30 0
22 29 30 0
-22 -29 -30 0
27 30 0
-27 -30 0
