certificates/rado_a5_c153_N30.drat
-30 0
27 0
-9 0
6 0
12 0
-24 0
21 0
-3 0
-29 0
26 0
22 0
1 0
11 0
17 0
16 0
-8 0
-4 0
-19 0
5 0
7 0
-23 0
-28 0
-25 0
15 0
20 0
0
